letting numberLocations be  44
letting costs be function (
(0,0) --> 0,
(0,1) --> 20,
(0,2) --> 54,
(0,3) --> 64,
(0,4) --> 38,
(0,5) --> 21,
(0,6) --> 29,
(0,7) --> 58,
(0,8) --> 32,
(0,9) --> 43,
(0,10) --> 19,
(0,11) --> 43,
(0,12) --> 32,
(0,13) --> 46,
(0,14) --> 57,
(0,15) --> 51,
(0,16) --> 41,
(0,17) --> 16,
(0,18) --> 51,
(0,19) --> 49,
(0,20) --> 68,
(0,21) --> 35,
(0,22) --> 26,
(0,23) --> 17,
(0,24) --> 87,
(0,25) --> 43,
(0,26) --> 45,
(0,27) --> 59,
(0,28) --> 24,
(0,29) --> 41,
(0,30) --> 16,
(0,31) --> 65,
(0,32) --> 54,
(0,33) --> 50,
(0,34) --> 59,
(0,35) --> 72,
(0,36) --> 20,
(0,37) --> 49,
(0,38) --> 67,
(0,39) --> 13,
(0,40) --> 45,
(0,41) --> 22,
(0,42) --> 33,
(0,43) --> 25,
(0,44) --> 54,
(1,0) --> 20,
(1,1) --> 0,
(1,2) --> 39,
(1,3) --> 57,
(1,4) --> 55,
(1,5) --> 41,
(1,6) --> 49,
(1,7) --> 38,
(1,8) --> 50,
(1,9) --> 28,
(1,10) --> 12,
(1,11) --> 58,
(1,12) --> 51,
(1,13) --> 32,
(1,14) --> 38,
(1,15) --> 36,
(1,16) --> 57,
(1,17) --> 9,
(1,18) --> 33,
(1,19) --> 64,
(1,20) --> 64,
(1,21) --> 53,
(1,22) --> 45,
(1,23) --> 6,
(1,24) --> 72,
(1,25) --> 58,
(1,26) --> 60,
(1,27) --> 40,
(1,28) --> 30,
(1,29) --> 57,
(1,30) --> 7,
(1,31) --> 59,
(1,32) --> 37,
(1,33) --> 65,
(1,34) --> 40,
(1,35) --> 67,
(1,36) --> 5,
(1,37) --> 33,
(1,38) --> 61,
(1,39) --> 8,
(1,40) --> 64,
(1,41) --> 41,
(1,42) --> 52,
(1,43) --> 43,
(1,44) --> 35,
(2,0) --> 54,
(2,1) --> 39,
(2,2) --> 0,
(2,3) --> 89,
(2,4) --> 92,
(2,5) --> 74,
(2,6) --> 82,
(2,7) --> 41,
(2,8) --> 86,
(2,9) --> 11,
(2,10) --> 51,
(2,11) --> 96,
(2,12) --> 85,
(2,13) --> 8,
(2,14) --> 46,
(2,15) --> 5,
(2,16) --> 95,
(2,17) --> 48,
(2,18) --> 46,
(2,19) --> 102,
(2,20) --> 97,
(2,21) --> 89,
(2,22) --> 80,
(2,23) --> 46,
(2,24) --> 86,
(2,25) --> 96,
(2,26) --> 98,
(2,27) --> 48,
(2,28) --> 42,
(2,29) --> 94,
(2,30) --> 47,
(2,31) --> 90,
(2,32) --> 8,
(2,33) --> 103,
(2,34) --> 45,
(2,35) --> 99,
(2,36) --> 44,
(2,37) --> 10,
(2,38) --> 92,
(2,39) --> 47,
(2,40) --> 90,
(2,41) --> 76,
(2,42) --> 76,
(2,43) --> 79,
(2,44) --> 42,
(3,0) --> 64,
(3,1) --> 57,
(3,2) --> 89,
(3,3) --> 0,
(3,4) --> 67,
(3,5) --> 73,
(3,6) --> 77,
(3,7) --> 56,
(3,8) --> 70,
(3,9) --> 79,
(3,10) --> 48,
(3,11) --> 65,
(3,12) --> 77,
(3,13) --> 83,
(3,14) --> 50,
(3,15) --> 84,
(3,16) --> 67,
(3,17) --> 52,
(3,18) --> 46,
(3,19) --> 69,
(3,20) --> 9,
(3,21) --> 72,
(3,22) --> 71,
(3,23) --> 53,
(3,24) --> 40,
(3,25) --> 63,
(3,26) --> 64,
(3,27) --> 49,
(3,28) --> 85,
(3,29) --> 66,
(3,30) --> 53,
(3,31) --> 2,
(3,32) --> 82,
(3,33) --> 70,
(3,34) --> 52,
(3,35) --> 10,
(3,36) --> 52,
(3,37) --> 79,
(3,38) --> 4,
(3,39) --> 56,
(3,40) --> 100,
(3,41) --> 69,
(3,42) --> 93,
(3,43) --> 67,
(3,44) --> 52,
(4,0) --> 38,
(4,1) --> 55,
(4,2) --> 92,
(4,3) --> 67,
(4,4) --> 0,
(4,5) --> 23,
(4,6) --> 18,
(4,7) --> 88,
(4,8) --> 8,
(4,9) --> 81,
(4,10) --> 46,
(4,11) --> 6,
(4,12) --> 16,
(4,13) --> 85,
(4,14) --> 85,
(4,15) --> 89,
(4,16) --> 3,
(4,17) --> 47,
(4,18) --> 79,
(4,19) --> 11,
(4,20) --> 66,
(4,21) --> 7,
(4,22) --> 15,
(4,23) --> 49,
(4,24) --> 103,
(4,25) --> 7,
(4,26) --> 9,
(4,27) --> 86,
(4,28) --> 58,
(4,29) --> 3,
(4,30) --> 48,
(4,31) --> 66,
(4,32) --> 91,
(4,33) --> 11,
(4,34) --> 88,
(4,35) --> 71,
(4,36) --> 52,
(4,37) --> 87,
(4,38) --> 68,
(4,39) --> 47,
(4,40) --> 38,
(4,41) --> 18,
(4,42) --> 39,
(4,43) --> 14,
(4,44) --> 83,
(5,0) --> 21,
(5,1) --> 41,
(5,2) --> 74,
(5,3) --> 73,
(5,4) --> 23,
(5,5) --> 0,
(5,6) --> 8,
(5,7) --> 78,
(5,8) --> 15,
(5,9) --> 64,
(5,10) --> 36,
(5,11) --> 29,
(5,12) --> 11,
(5,13) --> 66,
(5,14) --> 77,
(5,15) --> 72,
(5,16) --> 26,
(5,17) --> 35,
(5,18) --> 71,
(5,19) --> 33,
(5,20) --> 75,
(5,21) --> 17,
(5,22) --> 8,
(5,23) --> 37,
(5,24) --> 103,
(5,25) --> 29,
(5,26) --> 31,
(5,27) --> 78,
(5,28) --> 36,
(5,29) --> 26,
(5,30) --> 36,
(5,31) --> 73,
(5,32) --> 74,
(5,33) --> 34,
(5,34) --> 79,
(5,35) --> 79,
(5,36) --> 40,
(5,37) --> 70,
(5,38) --> 75,
(5,39) --> 33,
(5,40) --> 27,
(5,41) --> 6,
(5,42) --> 20,
(5,43) --> 9,
(5,44) --> 74,
(6,0) --> 29,
(6,1) --> 49,
(6,2) --> 82,
(6,3) --> 77,
(6,4) --> 18,
(6,5) --> 8,
(6,6) --> 0,
(6,7) --> 86,
(6,8) --> 10,
(6,9) --> 72,
(6,10) --> 43,
(6,11) --> 24,
(6,12) --> 3,
(6,13) --> 74,
(6,14) --> 84,
(6,15) --> 80,
(6,16) --> 21,
(6,17) --> 43,
(6,18) --> 78,
(6,19) --> 28,
(6,20) --> 77,
(6,21) --> 11,
(6,22) --> 6,
(6,23) --> 44,
(6,24) --> 108,
(6,25) --> 25,
(6,26) --> 27,
(6,27) --> 85,
(6,28) --> 43,
(6,29) --> 21,
(6,30) --> 43,
(6,31) --> 76,
(6,32) --> 82,
(6,33) --> 28,
(6,34) --> 86,
(6,35) --> 82,
(6,36) --> 48,
(6,37) --> 78,
(6,38) --> 78,
(6,39) --> 41,
(6,40) --> 23,
(6,41) --> 9,
(6,42) --> 21,
(6,43) --> 9,
(6,44) --> 81,
(7,0) --> 58,
(7,1) --> 38,
(7,2) --> 41,
(7,3) --> 56,
(7,4) --> 88,
(7,5) --> 78,
(7,6) --> 86,
(7,7) --> 0,
(7,8) --> 85,
(7,9) --> 36,
(7,10) --> 43,
(7,11) --> 90,
(7,12) --> 88,
(7,13) --> 39,
(7,14) --> 6,
(7,15) --> 36,
(7,16) --> 90,
(7,17) --> 43,
(7,18) --> 11,
(7,19) --> 96,
(7,20) --> 65,
(7,21) --> 88,
(7,22) --> 81,
(7,23) --> 41,
(7,24) --> 45,
(7,25) --> 89,
(7,26) --> 91,
(7,27) --> 8,
(7,28) --> 64,
(7,29) --> 89,
(7,30) --> 42,
(7,31) --> 58,
(7,32) --> 33,
(7,33) --> 97,
(7,34) --> 4,
(7,35) --> 66,
(7,36) --> 38,
(7,37) --> 31,
(7,38) --> 59,
(7,39) --> 45,
(7,40) --> 103,
(7,41) --> 78,
(7,42) --> 91,
(7,43) --> 79,
(7,44) --> 5,
(8,0) --> 32,
(8,1) --> 50,
(8,2) --> 86,
(8,3) --> 70,
(8,4) --> 8,
(8,5) --> 15,
(8,6) --> 10,
(8,7) --> 85,
(8,8) --> 0,
(8,9) --> 75,
(8,10) --> 42,
(8,11) --> 14,
(8,12) --> 9,
(8,13) --> 78,
(8,14) --> 82,
(8,15) --> 84,
(8,16) --> 11,
(8,17) --> 43,
(8,18) --> 76,
(8,19) --> 18,
(8,20) --> 69,
(8,21) --> 3,
(8,22) --> 7,
(8,23) --> 45,
(8,24) --> 103,
(8,25) --> 15,
(8,26) --> 17,
(8,27) --> 84,
(8,28) --> 51,
(8,29) --> 11,
(8,30) --> 44,
(8,31) --> 69,
(8,32) --> 86,
(8,33) --> 19,
(8,34) --> 85,
(8,35) --> 74,
(8,36) --> 48,
(8,37) --> 82,
(8,38) --> 71,
(8,39) --> 42,
(8,40) --> 32,
(8,41) --> 10,
(8,42) --> 32,
(8,43) --> 7,
(8,44) --> 81,
(9,0) --> 43,
(9,1) --> 28,
(9,2) --> 11,
(9,3) --> 79,
(9,4) --> 81,
(9,5) --> 64,
(9,6) --> 72,
(9,7) --> 36,
(9,8) --> 75,
(9,9) --> 0,
(9,10) --> 40,
(9,11) --> 85,
(9,12) --> 75,
(9,13) --> 4,
(9,14) --> 40,
(9,15) --> 8,
(9,16) --> 84,
(9,17) --> 37,
(9,18) --> 38,
(9,19) --> 91,
(9,20) --> 86,
(9,21) --> 78,
(9,22) --> 69,
(9,23) --> 34,
(9,24) --> 80,
(9,25) --> 85,
(9,26) --> 87,
(9,27) --> 42,
(9,28) --> 35,
(9,29) --> 83,
(9,30) --> 35,
(9,31) --> 80,
(9,32) --> 11,
(9,33) --> 92,
(9,34) --> 39,
(9,35) --> 89,
(9,36) --> 33,
(9,37) --> 8,
(9,38) --> 82,
(9,39) --> 35,
(9,40) --> 82,
(9,41) --> 66,
(9,42) --> 68,
(9,43) --> 68,
(9,44) --> 36,
(10,0) --> 19,
(10,1) --> 12,
(10,2) --> 51,
(10,3) --> 48,
(10,4) --> 46,
(10,5) --> 36,
(10,6) --> 43,
(10,7) --> 43,
(10,8) --> 42,
(10,9) --> 40,
(10,10) --> 0,
(10,11) --> 49,
(10,12) --> 46,
(10,13) --> 44,
(10,14) --> 40,
(10,15) --> 47,
(10,16) --> 48,
(10,17) --> 4,
(10,18) --> 35,
(10,19) --> 55,
(10,20) --> 53,
(10,21) --> 45,
(10,22) --> 39,
(10,23) --> 6,
(10,24) --> 68,
(10,25) --> 48,
(10,26) --> 50,
(10,27) --> 42,
(10,28) --> 37,
(10,29) --> 47,
(10,30) --> 5,
(10,31) --> 49,
(10,32) --> 48,
(10,33) --> 56,
(10,34) --> 43,
(10,35) --> 57,
(10,36) --> 7,
(10,37) --> 44,
(10,38) --> 51,
(10,39) --> 8,
(10,40) --> 62,
(10,41) --> 35,
(10,42) --> 52,
(10,43) --> 36,
(10,44) --> 38,
(11,0) --> 43,
(11,1) --> 58,
(11,2) --> 96,
(11,3) --> 65,
(11,4) --> 6,
(11,5) --> 29,
(11,6) --> 24,
(11,7) --> 90,
(11,8) --> 14,
(11,9) --> 85,
(11,10) --> 49,
(11,11) --> 0,
(11,12) --> 23,
(11,13) --> 89,
(11,14) --> 86,
(11,15) --> 93,
(11,16) --> 4,
(11,17) --> 50,
(11,18) --> 80,
(11,19) --> 6,
(11,20) --> 62,
(11,21) --> 13,
(11,22) --> 21,
(11,23) --> 52,
(11,24) --> 102,
(11,25) --> 1,
(11,26) --> 2,
(11,27) --> 87,
(11,28) --> 64,
(11,29) --> 3,
(11,30) --> 51,
(11,31) --> 64,
(11,32) --> 95,
(11,33) --> 7,
(11,34) --> 89,
(11,35) --> 67,
(11,36) --> 55,
(11,37) --> 91,
(11,38) --> 65,
(11,39) --> 50,
(11,40) --> 44,
(11,41) --> 23,
(11,42) --> 46,
(11,43) --> 20,
(11,44) --> 85,
(12,0) --> 32,
(12,1) --> 51,
(12,2) --> 85,
(12,3) --> 77,
(12,4) --> 16,
(12,5) --> 11,
(12,6) --> 3,
(12,7) --> 88,
(12,8) --> 9,
(12,9) --> 75,
(12,10) --> 46,
(12,11) --> 23,
(12,12) --> 0,
(12,13) --> 77,
(12,14) --> 86,
(12,15) --> 83,
(12,16) --> 19,
(12,17) --> 45,
(12,18) --> 80,
(12,19) --> 25,
(12,20) --> 77,
(12,21) --> 9,
(12,22) --> 7,
(12,23) --> 47,
(12,24) --> 109,
(12,25) --> 23,
(12,26) --> 25,
(12,27) --> 88,
(12,28) --> 47,
(12,29) --> 19,
(12,30) --> 46,
(12,31) --> 77,
(12,32) --> 85,
(12,33) --> 26,
(12,34) --> 89,
(12,35) --> 82,
(12,36) --> 50,
(12,37) --> 81,
(12,38) --> 79,
(12,39) --> 44,
(12,40) --> 23,
(12,41) --> 11,
(12,42) --> 23,
(12,43) --> 11,
(12,44) --> 84,
(13,0) --> 46,
(13,1) --> 32,
(13,2) --> 8,
(13,3) --> 83,
(13,4) --> 85,
(13,5) --> 66,
(13,6) --> 74,
(13,7) --> 39,
(13,8) --> 78,
(13,9) --> 4,
(13,10) --> 44,
(13,11) --> 89,
(13,12) --> 77,
(13,13) --> 0,
(13,14) --> 43,
(13,15) --> 6,
(13,16) --> 87,
(13,17) --> 41,
(13,18) --> 42,
(13,19) --> 95,
(13,20) --> 91,
(13,21) --> 81,
(13,22) --> 72,
(13,23) --> 38,
(13,24) --> 83,
(13,25) --> 88,
(13,26) --> 90,
(13,27) --> 45,
(13,28) --> 36,
(13,29) --> 87,
(13,30) --> 39,
(13,31) --> 85,
(13,32) --> 10,
(13,33) --> 95,
(13,34) --> 43,
(13,35) --> 93,
(13,36) --> 37,
(13,37) --> 9,
(13,38) --> 87,
(13,39) --> 39,
(13,40) --> 83,
(13,41) --> 68,
(13,42) --> 69,
(13,43) --> 71,
(13,44) --> 39,
(14,0) --> 57,
(14,1) --> 38,
(14,2) --> 46,
(14,3) --> 50,
(14,4) --> 85,
(14,5) --> 77,
(14,6) --> 84,
(14,7) --> 6,
(14,8) --> 82,
(14,9) --> 40,
(14,10) --> 40,
(14,11) --> 86,
(14,12) --> 86,
(14,13) --> 43,
(14,14) --> 0,
(14,15) --> 41,
(14,16) --> 87,
(14,17) --> 41,
(14,18) --> 6,
(14,19) --> 92,
(14,20) --> 59,
(14,21) --> 85,
(14,22) --> 79,
(14,23) --> 40,
(14,24) --> 40,
(14,25) --> 85,
(14,26) --> 87,
(14,27) --> 2,
(14,28) --> 65,
(14,29) --> 86,
(14,30) --> 41,
(14,31) --> 52,
(14,32) --> 38,
(14,33) --> 93,
(14,34) --> 3,
(14,35) --> 59,
(14,36) --> 37,
(14,37) --> 36,
(14,38) --> 53,
(14,39) --> 44,
(14,40) --> 102,
(14,41) --> 75,
(14,42) --> 90,
(14,43) --> 76,
(14,44) --> 4,
(15,0) --> 51,
(15,1) --> 36,
(15,2) --> 5,
(15,3) --> 84,
(15,4) --> 89,
(15,5) --> 72,
(15,6) --> 80,
(15,7) --> 36,
(15,8) --> 84,
(15,9) --> 8,
(15,10) --> 47,
(15,11) --> 93,
(15,12) --> 83,
(15,13) --> 6,
(15,14) --> 41,
(15,15) --> 0,
(15,16) --> 92,
(15,17) --> 44,
(15,18) --> 41,
(15,19) --> 99,
(15,20) --> 92,
(15,21) --> 87,
(15,22) --> 78,
(15,23) --> 42,
(15,24) --> 81,
(15,25) --> 93,
(15,26) --> 95,
(15,27) --> 43,
(15,28) --> 42,
(15,29) --> 91,
(15,30) --> 43,
(15,31) --> 85,
(15,32) --> 4,
(15,33) --> 100,
(15,34) --> 40,
(15,35) --> 94,
(15,36) --> 40,
(15,37) --> 5,
(15,38) --> 87,
(15,39) --> 43,
(15,40) --> 90,
(15,41) --> 74,
(15,42) --> 76,
(15,43) --> 76,
(15,44) --> 37,
(16,0) --> 41,
(16,1) --> 57,
(16,2) --> 95,
(16,3) --> 67,
(16,4) --> 3,
(16,5) --> 26,
(16,6) --> 21,
(16,7) --> 90,
(16,8) --> 11,
(16,9) --> 84,
(16,10) --> 48,
(16,11) --> 4,
(16,12) --> 19,
(16,13) --> 87,
(16,14) --> 87,
(16,15) --> 92,
(16,16) --> 0,
(16,17) --> 49,
(16,18) --> 81,
(16,19) --> 8,
(16,20) --> 65,
(16,21) --> 9,
(16,22) --> 18,
(16,23) --> 52,
(16,24) --> 103,
(16,25) --> 5,
(16,26) --> 6,
(16,27) --> 88,
(16,28) --> 61,
(16,29) --> 1,
(16,30) --> 51,
(16,31) --> 66,
(16,32) --> 94,
(16,33) --> 9,
(16,34) --> 90,
(16,35) --> 70,
(16,36) --> 54,
(16,37) --> 90,
(16,38) --> 68,
(16,39) --> 49,
(16,40) --> 40,
(16,41) --> 21,
(16,42) --> 42,
(16,43) --> 17,
(16,44) --> 85,
(17,0) --> 16,
(17,1) --> 9,
(17,2) --> 48,
(17,3) --> 52,
(17,4) --> 47,
(17,5) --> 35,
(17,6) --> 43,
(17,7) --> 43,
(17,8) --> 43,
(17,9) --> 37,
(17,10) --> 4,
(17,11) --> 50,
(17,12) --> 45,
(17,13) --> 41,
(17,14) --> 41,
(17,15) --> 44,
(17,16) --> 49,
(17,17) --> 0,
(17,18) --> 35,
(17,19) --> 56,
(17,20) --> 57,
(17,21) --> 46,
(17,22) --> 39,
(17,23) --> 2,
(17,24) --> 71,
(17,25) --> 49,
(17,26) --> 52,
(17,27) --> 43,
(17,28) --> 33,
(17,29) --> 49,
(17,30) --> 1,
(17,31) --> 53,
(17,32) --> 46,
(17,33) --> 57,
(17,34) --> 43,
(17,35) --> 61,
(17,36) --> 5,
(17,37) --> 41,
(17,38) --> 55,
(17,39) --> 4,
(17,40) --> 61,
(17,41) --> 35,
(17,42) --> 50,
(17,43) --> 36,
(17,44) --> 39,
(18,0) --> 51,
(18,1) --> 33,
(18,2) --> 46,
(18,3) --> 46,
(18,4) --> 79,
(18,5) --> 71,
(18,6) --> 78,
(18,7) --> 11,
(18,8) --> 76,
(18,9) --> 38,
(18,10) --> 35,
(18,11) --> 80,
(18,12) --> 80,
(18,13) --> 42,
(18,14) --> 6,
(18,15) --> 41,
(18,16) --> 81,
(18,17) --> 35,
(18,18) --> 0,
(18,19) --> 86,
(18,20) --> 55,
(18,21) --> 79,
(18,22) --> 73,
(18,23) --> 34,
(18,24) --> 42,
(18,25) --> 79,
(18,26) --> 81,
(18,27) --> 8,
(18,28) --> 60,
(18,29) --> 80,
(18,30) --> 35,
(18,31) --> 48,
(18,32) --> 38,
(18,33) --> 87,
(18,34) --> 9,
(18,35) --> 56,
(18,36) --> 31,
(18,37) --> 36,
(18,38) --> 50,
(18,39) --> 38,
(18,40) --> 96,
(18,41) --> 69,
(18,42) --> 84,
(18,43) --> 70,
(18,44) --> 6,
(19,0) --> 49,
(19,1) --> 64,
(19,2) --> 102,
(19,3) --> 69,
(19,4) --> 11,
(19,5) --> 33,
(19,6) --> 28,
(19,7) --> 96,
(19,8) --> 18,
(19,9) --> 91,
(19,10) --> 55,
(19,11) --> 6,
(19,12) --> 25,
(19,13) --> 95,
(19,14) --> 92,
(19,15) --> 99,
(19,16) --> 8,
(19,17) --> 56,
(19,18) --> 86,
(19,19) --> 0,
(19,20) --> 66,
(19,21) --> 17,
(19,22) --> 25,
(19,23) --> 58,
(19,24) --> 106,
(19,25) --> 7,
(19,26) --> 5,
(19,27) --> 93,
(19,28) --> 69,
(19,29) --> 8,
(19,30) --> 57,
(19,31) --> 68,
(19,32) --> 101,
(19,33) --> 1,
(19,34) --> 95,
(19,35) --> 71,
(19,36) --> 61,
(19,37) --> 97,
(19,38) --> 69,
(19,39) --> 56,
(19,40) --> 45,
(19,41) --> 28,
(19,42) --> 48,
(19,43) --> 25,
(19,44) --> 91,
(20,0) --> 68,
(20,1) --> 64,
(20,2) --> 97,
(20,3) --> 9,
(20,4) --> 66,
(20,5) --> 75,
(20,6) --> 77,
(20,7) --> 65,
(20,8) --> 69,
(20,9) --> 86,
(20,10) --> 53,
(20,11) --> 62,
(20,12) --> 77,
(20,13) --> 91,
(20,14) --> 59,
(20,15) --> 92,
(20,16) --> 65,
(20,17) --> 57,
(20,18) --> 55,
(20,19) --> 66,
(20,20) --> 0,
(20,21) --> 71,
(20,22) --> 71,
(20,23) --> 59,
(20,24) --> 48,
(20,25) --> 61,
(20,26) --> 62,
(20,27) --> 58,
(20,28) --> 90,
(20,29) --> 64,
(20,30) --> 59,
(20,31) --> 7,
(20,32) --> 91,
(20,33) --> 67,
(20,34) --> 62,
(20,35) --> 5,
(20,36) --> 58,
(20,37) --> 87,
(20,38) --> 6,
(20,39) --> 61,
(20,40) --> 100,
(20,41) --> 69,
(20,42) --> 95,
(20,43) --> 68,
(20,44) --> 61,
(21,0) --> 35,
(21,1) --> 53,
(21,2) --> 89,
(21,3) --> 72,
(21,4) --> 7,
(21,5) --> 17,
(21,6) --> 11,
(21,7) --> 88,
(21,8) --> 3,
(21,9) --> 78,
(21,10) --> 45,
(21,11) --> 13,
(21,12) --> 9,
(21,13) --> 81,
(21,14) --> 85,
(21,15) --> 87,
(21,16) --> 9,
(21,17) --> 46,
(21,18) --> 79,
(21,19) --> 17,
(21,20) --> 71,
(21,21) --> 0,
(21,22) --> 9,
(21,23) --> 48,
(21,24) --> 106,
(21,25) --> 14,
(21,26) --> 16,
(21,27) --> 87,
(21,28) --> 53,
(21,29) --> 10,
(21,30) --> 47,
(21,31) --> 71,
(21,32) --> 89,
(21,33) --> 17,
(21,34) --> 88,
(21,35) --> 76,
(21,36) --> 51,
(21,37) --> 85,
(21,38) --> 73,
(21,39) --> 45,
(21,40) --> 31,
(21,41) --> 13,
(21,42) --> 32,
(21,43) --> 10,
(21,44) --> 84,
(22,0) --> 26,
(22,1) --> 45,
(22,2) --> 80,
(22,3) --> 71,
(22,4) --> 15,
(22,5) --> 8,
(22,6) --> 6,
(22,7) --> 81,
(22,8) --> 7,
(22,9) --> 69,
(22,10) --> 39,
(22,11) --> 21,
(22,12) --> 7,
(22,13) --> 72,
(22,14) --> 79,
(22,15) --> 78,
(22,16) --> 18,
(22,17) --> 39,
(22,18) --> 73,
(22,19) --> 25,
(22,20) --> 71,
(22,21) --> 9,
(22,22) --> 0,
(22,23) --> 40,
(22,24) --> 102,
(22,25) --> 21,
(22,26) --> 23,
(22,27) --> 81,
(22,28) --> 44,
(22,29) --> 18,
(22,30) --> 39,
(22,31) --> 70,
(22,32) --> 80,
(22,33) --> 26,
(22,34) --> 82,
(22,35) --> 76,
(22,36) --> 44,
(22,37) --> 76,
(22,38) --> 72,
(22,39) --> 37,
(22,40) --> 29,
(22,41) --> 4,
(22,42) --> 26,
(22,43) --> 4,
(22,44) --> 77,
(23,0) --> 17,
(23,1) --> 6,
(23,2) --> 46,
(23,3) --> 53,
(23,4) --> 49,
(23,5) --> 37,
(23,6) --> 44,
(23,7) --> 41,
(23,8) --> 45,
(23,9) --> 34,
(23,10) --> 6,
(23,11) --> 52,
(23,12) --> 47,
(23,13) --> 38,
(23,14) --> 40,
(23,15) --> 42,
(23,16) --> 52,
(23,17) --> 2,
(23,18) --> 34,
(23,19) --> 58,
(23,20) --> 59,
(23,21) --> 48,
(23,22) --> 40,
(23,23) --> 0,
(23,24) --> 71,
(23,25) --> 52,
(23,26) --> 54,
(23,27) --> 42,
(23,28) --> 32,
(23,29) --> 51,
(23,30) --> 1,
(23,31) --> 54,
(23,32) --> 43,
(23,33) --> 59,
(23,34) --> 42,
(23,35) --> 62,
(23,36) --> 3,
(23,37) --> 39,
(23,38) --> 56,
(23,39) --> 4,
(23,40) --> 62,
(23,41) --> 36,
(23,42) --> 50,
(23,43) --> 38,
(23,44) --> 37,
(24,0) --> 87,
(24,1) --> 72,
(24,2) --> 86,
(24,3) --> 40,
(24,4) --> 103,
(24,5) --> 103,
(24,6) --> 108,
(24,7) --> 45,
(24,8) --> 103,
(24,9) --> 80,
(24,10) --> 68,
(24,11) --> 102,
(24,12) --> 109,
(24,13) --> 83,
(24,14) --> 40,
(24,15) --> 81,
(24,16) --> 103,
(24,17) --> 71,
(24,18) --> 42,
(24,19) --> 106,
(24,20) --> 48,
(24,21) --> 106,
(24,22) --> 102,
(24,23) --> 71,
(24,24) --> 0,
(24,25) --> 100,
(24,26) --> 102,
(24,27) --> 38,
(24,28) --> 101,
(24,29) --> 102,
(24,30) --> 71,
(24,31) --> 42,
(24,32) --> 78,
(24,33) --> 107,
(24,34) --> 41,
(24,35) --> 45,
(24,36) --> 68,
(24,37) --> 76,
(24,38) --> 42,
(24,39) --> 75,
(24,40) --> 129,
(24,41) --> 99,
(24,42) --> 120,
(24,43) --> 99,
(24,44) --> 44,
(25,0) --> 43,
(25,1) --> 58,
(25,2) --> 96,
(25,3) --> 63,
(25,4) --> 7,
(25,5) --> 29,
(25,6) --> 25,
(25,7) --> 89,
(25,8) --> 15,
(25,9) --> 85,
(25,10) --> 48,
(25,11) --> 1,
(25,12) --> 23,
(25,13) --> 88,
(25,14) --> 85,
(25,15) --> 93,
(25,16) --> 5,
(25,17) --> 49,
(25,18) --> 79,
(25,19) --> 7,
(25,20) --> 61,
(25,21) --> 14,
(25,22) --> 21,
(25,23) --> 52,
(25,24) --> 100,
(25,25) --> 0,
(25,26) --> 2,
(25,27) --> 86,
(25,28) --> 64,
(25,29) --> 4,
(25,30) --> 51,
(25,31) --> 62,
(25,32) --> 95,
(25,33) --> 8,
(25,34) --> 88,
(25,35) --> 66,
(25,36) --> 54,
(25,37) --> 90,
(25,38) --> 64,
(25,39) --> 50,
(25,40) --> 45,
(25,41) --> 24,
(25,42) --> 46,
(25,43) --> 20,
(25,44) --> 84,
(26,0) --> 45,
(26,1) --> 60,
(26,2) --> 98,
(26,3) --> 64,
(26,4) --> 9,
(26,5) --> 31,
(26,6) --> 27,
(26,7) --> 91,
(26,8) --> 17,
(26,9) --> 87,
(26,10) --> 50,
(26,11) --> 2,
(26,12) --> 25,
(26,13) --> 90,
(26,14) --> 87,
(26,15) --> 95,
(26,16) --> 6,
(26,17) --> 52,
(26,18) --> 81,
(26,19) --> 5,
(26,20) --> 62,
(26,21) --> 16,
(26,22) --> 23,
(26,23) --> 54,
(26,24) --> 102,
(26,25) --> 2,
(26,26) --> 0,
(26,27) --> 88,
(26,28) --> 66,
(26,29) --> 5,
(26,30) --> 53,
(26,31) --> 63,
(26,32) --> 97,
(26,33) --> 6,
(26,34) --> 90,
(26,35) --> 66,
(26,36) --> 57,
(26,37) --> 92,
(26,38) --> 65,
(26,39) --> 52,
(26,40) --> 46,
(26,41) --> 26,
(26,42) --> 48,
(26,43) --> 22,
(26,44) --> 86,
(27,0) --> 59,
(27,1) --> 40,
(27,2) --> 48,
(27,3) --> 49,
(27,4) --> 86,
(27,5) --> 78,
(27,6) --> 85,
(27,7) --> 8,
(27,8) --> 84,
(27,9) --> 42,
(27,10) --> 42,
(27,11) --> 87,
(27,12) --> 88,
(27,13) --> 45,
(27,14) --> 2,
(27,15) --> 43,
(27,16) --> 88,
(27,17) --> 43,
(27,18) --> 8,
(27,19) --> 93,
(27,20) --> 58,
(27,21) --> 87,
(27,22) --> 81,
(27,23) --> 42,
(27,24) --> 38,
(27,25) --> 86,
(27,26) --> 88,
(27,27) --> 0,
(27,28) --> 67,
(27,29) --> 87,
(27,30) --> 43,
(27,31) --> 51,
(27,32) --> 40,
(27,33) --> 94,
(27,34) --> 4,
(27,35) --> 59,
(27,36) --> 39,
(27,37) --> 38,
(27,38) --> 52,
(27,39) --> 46,
(27,40) --> 104,
(27,41) --> 77,
(27,42) --> 92,
(27,43) --> 78,
(27,44) --> 6,
(28,0) --> 24,
(28,1) --> 30,
(28,2) --> 42,
(28,3) --> 85,
(28,4) --> 58,
(28,5) --> 36,
(28,6) --> 43,
(28,7) --> 64,
(28,8) --> 51,
(28,9) --> 35,
(28,10) --> 37,
(28,11) --> 64,
(28,12) --> 47,
(28,13) --> 36,
(28,14) --> 65,
(28,15) --> 42,
(28,16) --> 61,
(28,17) --> 33,
(28,18) --> 60,
(28,19) --> 69,
(28,20) --> 90,
(28,21) --> 53,
(28,22) --> 44,
(28,23) --> 32,
(28,24) --> 101,
(28,25) --> 64,
(28,26) --> 66,
(28,27) --> 67,
(28,28) --> 0,
(28,29) --> 61,
(28,30) --> 32,
(28,31) --> 86,
(28,32) --> 46,
(28,33) --> 70,
(28,34) --> 66,
(28,35) --> 94,
(28,36) --> 34,
(28,37) --> 43,
(28,38) --> 88,
(28,39) --> 29,
(28,40) --> 48,
(28,41) --> 40,
(28,42) --> 34,
(28,43) --> 44,
(28,44) --> 61,
(29,0) --> 41,
(29,1) --> 57,
(29,2) --> 94,
(29,3) --> 66,
(29,4) --> 3,
(29,5) --> 26,
(29,6) --> 21,
(29,7) --> 89,
(29,8) --> 11,
(29,9) --> 83,
(29,10) --> 47,
(29,11) --> 3,
(29,12) --> 19,
(29,13) --> 87,
(29,14) --> 86,
(29,15) --> 91,
(29,16) --> 1,
(29,17) --> 49,
(29,18) --> 80,
(29,19) --> 8,
(29,20) --> 64,
(29,21) --> 10,
(29,22) --> 18,
(29,23) --> 51,
(29,24) --> 102,
(29,25) --> 4,
(29,26) --> 5,
(29,27) --> 87,
(29,28) --> 61,
(29,29) --> 0,
(29,30) --> 50,
(29,31) --> 65,
(29,32) --> 93,
(29,33) --> 9,
(29,34) --> 88,
(29,35) --> 69,
(29,36) --> 54,
(29,37) --> 89,
(29,38) --> 66,
(29,39) --> 49,
(29,40) --> 41,
(29,41) --> 21,
(29,42) --> 42,
(29,43) --> 17,
(29,44) --> 84,
(30,0) --> 16,
(30,1) --> 7,
(30,2) --> 47,
(30,3) --> 53,
(30,4) --> 48,
(30,5) --> 36,
(30,6) --> 43,
(30,7) --> 42,
(30,8) --> 44,
(30,9) --> 35,
(30,10) --> 5,
(30,11) --> 51,
(30,12) --> 46,
(30,13) --> 39,
(30,14) --> 41,
(30,15) --> 43,
(30,16) --> 51,
(30,17) --> 1,
(30,18) --> 35,
(30,19) --> 57,
(30,20) --> 59,
(30,21) --> 47,
(30,22) --> 39,
(30,23) --> 1,
(30,24) --> 71,
(30,25) --> 51,
(30,26) --> 53,
(30,27) --> 43,
(30,28) --> 32,
(30,29) --> 50,
(30,30) --> 0,
(30,31) --> 54,
(30,32) --> 44,
(30,33) --> 58,
(30,34) --> 43,
(30,35) --> 62,
(30,36) --> 4,
(30,37) --> 40,
(30,38) --> 56,
(30,39) --> 4,
(30,40) --> 61,
(30,41) --> 36,
(30,42) --> 50,
(30,43) --> 37,
(30,44) --> 38,
(31,0) --> 65,
(31,1) --> 59,
(31,2) --> 90,
(31,3) --> 2,
(31,4) --> 66,
(31,5) --> 73,
(31,6) --> 76,
(31,7) --> 58,
(31,8) --> 69,
(31,9) --> 80,
(31,10) --> 49,
(31,11) --> 64,
(31,12) --> 77,
(31,13) --> 85,
(31,14) --> 52,
(31,15) --> 85,
(31,16) --> 66,
(31,17) --> 53,
(31,18) --> 48,
(31,19) --> 68,
(31,20) --> 7,
(31,21) --> 71,
(31,22) --> 70,
(31,23) --> 54,
(31,24) --> 42,
(31,25) --> 62,
(31,26) --> 63,
(31,27) --> 51,
(31,28) --> 86,
(31,29) --> 65,
(31,30) --> 54,
(31,31) --> 0,
(31,32) --> 84,
(31,33) --> 69,
(31,34) --> 55,
(31,35) --> 9,
(31,36) --> 53,
(31,37) --> 81,
(31,38) --> 2,
(31,39) --> 57,
(31,40) --> 99,
(31,41) --> 68,
(31,42) --> 93,
(31,43) --> 67,
(31,44) --> 54,
(32,0) --> 54,
(32,1) --> 37,
(32,2) --> 8,
(32,3) --> 82,
(32,4) --> 91,
(32,5) --> 74,
(32,6) --> 82,
(32,7) --> 33,
(32,8) --> 86,
(32,9) --> 11,
(32,10) --> 48,
(32,11) --> 95,
(32,12) --> 85,
(32,13) --> 10,
(32,14) --> 38,
(32,15) --> 4,
(32,16) --> 94,
(32,17) --> 46,
(32,18) --> 38,
(32,19) --> 101,
(32,20) --> 91,
(32,21) --> 89,
(32,22) --> 80,
(32,23) --> 43,
(32,24) --> 78,
(32,25) --> 95,
(32,26) --> 97,
(32,27) --> 40,
(32,28) --> 46,
(32,29) --> 93,
(32,30) --> 44,
(32,31) --> 84,
(32,32) --> 0,
(32,33) --> 102,
(32,34) --> 37,
(32,35) --> 93,
(32,36) --> 41,
(32,37) --> 4,
(32,38) --> 86,
(32,39) --> 45,
(32,40) --> 93,
(32,41) --> 76,
(32,42) --> 79,
(32,43) --> 79,
(32,44) --> 34,
(33,0) --> 50,
(33,1) --> 65,
(33,2) --> 103,
(33,3) --> 70,
(33,4) --> 11,
(33,5) --> 34,
(33,6) --> 28,
(33,7) --> 97,
(33,8) --> 19,
(33,9) --> 92,
(33,10) --> 56,
(33,11) --> 7,
(33,12) --> 26,
(33,13) --> 95,
(33,14) --> 93,
(33,15) --> 100,
(33,16) --> 9,
(33,17) --> 57,
(33,18) --> 87,
(33,19) --> 1,
(33,20) --> 67,
(33,21) --> 17,
(33,22) --> 26,
(33,23) --> 59,
(33,24) --> 107,
(33,25) --> 8,
(33,26) --> 6,
(33,27) --> 94,
(33,28) --> 70,
(33,29) --> 9,
(33,30) --> 58,
(33,31) --> 69,
(33,32) --> 102,
(33,33) --> 0,
(33,34) --> 96,
(33,35) --> 71,
(33,36) --> 62,
(33,37) --> 98,
(33,38) --> 70,
(33,39) --> 57,
(33,40) --> 45,
(33,41) --> 29,
(33,42) --> 49,
(33,43) --> 26,
(33,44) --> 92,
(34,0) --> 59,
(34,1) --> 40,
(34,2) --> 45,
(34,3) --> 52,
(34,4) --> 88,
(34,5) --> 79,
(34,6) --> 86,
(34,7) --> 4,
(34,8) --> 85,
(34,9) --> 39,
(34,10) --> 43,
(34,11) --> 89,
(34,12) --> 89,
(34,13) --> 43,
(34,14) --> 3,
(34,15) --> 40,
(34,16) --> 90,
(34,17) --> 43,
(34,18) --> 9,
(34,19) --> 95,
(34,20) --> 62,
(34,21) --> 88,
(34,22) --> 82,
(34,23) --> 42,
(34,24) --> 41,
(34,25) --> 88,
(34,26) --> 90,
(34,27) --> 4,
(34,28) --> 66,
(34,29) --> 88,
(34,30) --> 43,
(34,31) --> 55,
(34,32) --> 37,
(34,33) --> 96,
(34,34) --> 0,
(34,35) --> 62,
(34,36) --> 39,
(34,37) --> 35,
(34,38) --> 56,
(34,39) --> 46,
(34,40) --> 104,
(34,41) --> 78,
(34,42) --> 92,
(34,43) --> 79,
(34,44) --> 5,
(35,0) --> 72,
(35,1) --> 67,
(35,2) --> 99,
(35,3) --> 10,
(35,4) --> 71,
(35,5) --> 79,
(35,6) --> 82,
(35,7) --> 66,
(35,8) --> 74,
(35,9) --> 89,
(35,10) --> 57,
(35,11) --> 67,
(35,12) --> 82,
(35,13) --> 93,
(35,14) --> 59,
(35,15) --> 94,
(35,16) --> 70,
(35,17) --> 61,
(35,18) --> 56,
(35,19) --> 71,
(35,20) --> 5,
(35,21) --> 76,
(35,22) --> 76,
(35,23) --> 62,
(35,24) --> 45,
(35,25) --> 66,
(35,26) --> 66,
(35,27) --> 59,
(35,28) --> 94,
(35,29) --> 69,
(35,30) --> 62,
(35,31) --> 9,
(35,32) --> 93,
(35,33) --> 71,
(35,34) --> 62,
(35,35) --> 0,
(35,36) --> 62,
(35,37) --> 89,
(35,38) --> 7,
(35,39) --> 65,
(35,40) --> 105,
(35,41) --> 74,
(35,42) --> 100,
(35,43) --> 72,
(35,44) --> 62,
(36,0) --> 20,
(36,1) --> 5,
(36,2) --> 44,
(36,3) --> 52,
(36,4) --> 52,
(36,5) --> 40,
(36,6) --> 48,
(36,7) --> 38,
(36,8) --> 48,
(36,9) --> 33,
(36,10) --> 7,
(36,11) --> 55,
(36,12) --> 50,
(36,13) --> 37,
(36,14) --> 37,
(36,15) --> 40,
(36,16) --> 54,
(36,17) --> 5,
(36,18) --> 31,
(36,19) --> 61,
(36,20) --> 58,
(36,21) --> 51,
(36,22) --> 44,
(36,23) --> 3,
(36,24) --> 68,
(36,25) --> 54,
(36,26) --> 57,
(36,27) --> 39,
(36,28) --> 34,
(36,29) --> 54,
(36,30) --> 4,
(36,31) --> 53,
(36,32) --> 41,
(36,33) --> 62,
(36,34) --> 39,
(36,35) --> 62,
(36,36) --> 0,
(36,37) --> 37,
(36,38) --> 55,
(36,39) --> 7,
(36,40) --> 65,
(36,41) --> 40,
(36,42) --> 53,
(36,43) --> 41,
(36,44) --> 34,
(37,0) --> 49,
(37,1) --> 33,
(37,2) --> 10,
(37,3) --> 79,
(37,4) --> 87,
(37,5) --> 70,
(37,6) --> 78,
(37,7) --> 31,
(37,8) --> 82,
(37,9) --> 8,
(37,10) --> 44,
(37,11) --> 91,
(37,12) --> 81,
(37,13) --> 9,
(37,14) --> 36,
(37,15) --> 5,
(37,16) --> 90,
(37,17) --> 41,
(37,18) --> 36,
(37,19) --> 97,
(37,20) --> 87,
(37,21) --> 85,
(37,22) --> 76,
(37,23) --> 39,
(37,24) --> 76,
(37,25) --> 90,
(37,26) --> 92,
(37,27) --> 38,
(37,28) --> 43,
(37,29) --> 89,
(37,30) --> 40,
(37,31) --> 81,
(37,32) --> 4,
(37,33) --> 98,
(37,34) --> 35,
(37,35) --> 89,
(37,36) --> 37,
(37,37) --> 0,
(37,38) --> 82,
(37,39) --> 40,
(37,40) --> 89,
(37,41) --> 72,
(37,42) --> 76,
(37,43) --> 74,
(37,44) --> 32,
(38,0) --> 67,
(38,1) --> 61,
(38,2) --> 92,
(38,3) --> 4,
(38,4) --> 68,
(38,5) --> 75,
(38,6) --> 78,
(38,7) --> 59,
(38,8) --> 71,
(38,9) --> 82,
(38,10) --> 51,
(38,11) --> 65,
(38,12) --> 79,
(38,13) --> 87,
(38,14) --> 53,
(38,15) --> 87,
(38,16) --> 68,
(38,17) --> 55,
(38,18) --> 50,
(38,19) --> 69,
(38,20) --> 6,
(38,21) --> 73,
(38,22) --> 72,
(38,23) --> 56,
(38,24) --> 42,
(38,25) --> 64,
(38,26) --> 65,
(38,27) --> 52,
(38,28) --> 88,
(38,29) --> 66,
(38,30) --> 56,
(38,31) --> 2,
(38,32) --> 86,
(38,33) --> 70,
(38,34) --> 56,
(38,35) --> 7,
(38,36) --> 55,
(38,37) --> 82,
(38,38) --> 0,
(38,39) --> 59,
(38,40) --> 101,
(38,41) --> 70,
(38,42) --> 95,
(38,43) --> 69,
(38,44) --> 55,
(39,0) --> 13,
(39,1) --> 8,
(39,2) --> 47,
(39,3) --> 56,
(39,4) --> 47,
(39,5) --> 33,
(39,6) --> 41,
(39,7) --> 45,
(39,8) --> 42,
(39,9) --> 35,
(39,10) --> 8,
(39,11) --> 50,
(39,12) --> 44,
(39,13) --> 39,
(39,14) --> 44,
(39,15) --> 43,
(39,16) --> 49,
(39,17) --> 4,
(39,18) --> 38,
(39,19) --> 56,
(39,20) --> 61,
(39,21) --> 45,
(39,22) --> 37,
(39,23) --> 4,
(39,24) --> 75,
(39,25) --> 50,
(39,26) --> 52,
(39,27) --> 46,
(39,28) --> 29,
(39,29) --> 49,
(39,30) --> 4,
(39,31) --> 57,
(39,32) --> 45,
(39,33) --> 57,
(39,34) --> 46,
(39,35) --> 65,
(39,36) --> 7,
(39,37) --> 40,
(39,38) --> 59,
(39,39) --> 0,
(39,40) --> 58,
(39,41) --> 33,
(39,42) --> 46,
(39,43) --> 35,
(39,44) --> 41,
(40,0) --> 45,
(40,1) --> 64,
(40,2) --> 90,
(40,3) --> 100,
(40,4) --> 38,
(40,5) --> 27,
(40,6) --> 23,
(40,7) --> 103,
(40,8) --> 32,
(40,9) --> 82,
(40,10) --> 62,
(40,11) --> 44,
(40,12) --> 23,
(40,13) --> 83,
(40,14) --> 102,
(40,15) --> 90,
(40,16) --> 40,
(40,17) --> 61,
(40,18) --> 96,
(40,19) --> 45,
(40,20) --> 100,
(40,21) --> 31,
(40,22) --> 29,
(40,23) --> 62,
(40,24) --> 129,
(40,25) --> 45,
(40,26) --> 46,
(40,27) --> 104,
(40,28) --> 48,
(40,29) --> 41,
(40,30) --> 61,
(40,31) --> 99,
(40,32) --> 93,
(40,33) --> 45,
(40,34) --> 104,
(40,35) --> 105,
(40,36) --> 65,
(40,37) --> 89,
(40,38) --> 101,
(40,39) --> 58,
(40,40) --> 0,
(40,41) --> 31,
(40,42) --> 14,
(40,43) --> 33,
(40,44) --> 99,
(41,0) --> 22,
(41,1) --> 41,
(41,2) --> 76,
(41,3) --> 69,
(41,4) --> 18,
(41,5) --> 6,
(41,6) --> 9,
(41,7) --> 78,
(41,8) --> 10,
(41,9) --> 66,
(41,10) --> 35,
(41,11) --> 23,
(41,12) --> 11,
(41,13) --> 68,
(41,14) --> 75,
(41,15) --> 74,
(41,16) --> 21,
(41,17) --> 35,
(41,18) --> 69,
(41,19) --> 28,
(41,20) --> 69,
(41,21) --> 13,
(41,22) --> 4,
(41,23) --> 36,
(41,24) --> 99,
(41,25) --> 24,
(41,26) --> 26,
(41,27) --> 77,
(41,28) --> 40,
(41,29) --> 21,
(41,30) --> 36,
(41,31) --> 68,
(41,32) --> 76,
(41,33) --> 29,
(41,34) --> 78,
(41,35) --> 74,
(41,36) --> 40,
(41,37) --> 72,
(41,38) --> 70,
(41,39) --> 33,
(41,40) --> 31,
(41,41) --> 0,
(41,42) --> 26,
(41,43) --> 4,
(41,44) --> 73,
(42,0) --> 33,
(42,1) --> 52,
(42,2) --> 76,
(42,3) --> 93,
(42,4) --> 39,
(42,5) --> 20,
(42,6) --> 21,
(42,7) --> 91,
(42,8) --> 32,
(42,9) --> 68,
(42,10) --> 52,
(42,11) --> 46,
(42,12) --> 23,
(42,13) --> 69,
(42,14) --> 90,
(42,15) --> 76,
(42,16) --> 42,
(42,17) --> 50,
(42,18) --> 84,
(42,19) --> 48,
(42,20) --> 95,
(42,21) --> 32,
(42,22) --> 26,
(42,23) --> 50,
(42,24) --> 120,
(42,25) --> 46,
(42,26) --> 48,
(42,27) --> 92,
(42,28) --> 34,
(42,29) --> 42,
(42,30) --> 50,
(42,31) --> 93,
(42,32) --> 79,
(42,33) --> 49,
(42,34) --> 92,
(42,35) --> 100,
(42,36) --> 53,
(42,37) --> 76,
(42,38) --> 95,
(42,39) --> 46,
(42,40) --> 14,
(42,41) --> 26,
(42,42) --> 0,
(42,43) --> 29,
(42,44) --> 87,
(43,0) --> 25,
(43,1) --> 43,
(43,2) --> 79,
(43,3) --> 67,
(43,4) --> 14,
(43,5) --> 9,
(43,6) --> 9,
(43,7) --> 79,
(43,8) --> 7,
(43,9) --> 68,
(43,10) --> 36,
(43,11) --> 20,
(43,12) --> 11,
(43,13) --> 71,
(43,14) --> 76,
(43,15) --> 76,
(43,16) --> 17,
(43,17) --> 36,
(43,18) --> 70,
(43,19) --> 25,
(43,20) --> 68,
(43,21) --> 10,
(43,22) --> 4,
(43,23) --> 38,
(43,24) --> 99,
(43,25) --> 20,
(43,26) --> 22,
(43,27) --> 78,
(43,28) --> 44,
(43,29) --> 17,
(43,30) --> 37,
(43,31) --> 67,
(43,32) --> 79,
(43,33) --> 26,
(43,34) --> 79,
(43,35) --> 72,
(43,36) --> 41,
(43,37) --> 74,
(43,38) --> 69,
(43,39) --> 35,
(43,40) --> 33,
(43,41) --> 4,
(43,42) --> 29,
(43,43) --> 0,
(43,44) --> 74,
(44,0) --> 54,
(44,1) --> 35,
(44,2) --> 42,
(44,3) --> 52,
(44,4) --> 83,
(44,5) --> 74,
(44,6) --> 81,
(44,7) --> 5,
(44,8) --> 81,
(44,9) --> 36,
(44,10) --> 38,
(44,11) --> 85,
(44,12) --> 84,
(44,13) --> 39,
(44,14) --> 4,
(44,15) --> 37,
(44,16) --> 85,
(44,17) --> 39,
(44,18) --> 6,
(44,19) --> 91,
(44,20) --> 61,
(44,21) --> 84,
(44,22) --> 77,
(44,23) --> 37,
(44,24) --> 44,
(44,25) --> 84,
(44,26) --> 86,
(44,27) --> 6,
(44,28) --> 61,
(44,29) --> 84,
(44,30) --> 38,
(44,31) --> 54,
(44,32) --> 34,
(44,33) --> 92,
(44,34) --> 5,
(44,35) --> 62,
(44,36) --> 34,
(44,37) --> 32,
(44,38) --> 55,
(44,39) --> 41,
(44,40) --> 99,
(44,41) --> 73,
(44,42) --> 87,
(44,43) --> 74,
(44,44) --> 0)
letting orderWeights be function (
1 --> 1
,
2 --> 19
,
3 --> 19
,
4 --> 22
,
5 --> 20
,
6 --> 11
,
7 --> 2
,
8 --> 5
,
9 --> 20
,
10 --> 22
,
11 --> 2
,
12 --> 2
,
13 --> 11
,
14 --> 22
,
15 --> 19
,
16 --> 3
,
17 --> 1
,
18 --> 2
,
19 --> 16
,
20 --> 2
,
21 --> 13
,
22 --> 7
,
23 --> 8
,
24 --> 16
,
25 --> 14
,
26 --> 4
,
27 --> 14
,
28 --> 7
,
29 --> 20
,
30 --> 14
,
31 --> 7
,
32 --> 9
,
33 --> 7
,
34 --> 5
,
35 --> 10
,
36 --> 13
,
37 --> 25
,
38 --> 1
,
39 --> 22
,
40 --> 9
,
41 --> 3
,
42 --> 8
,
43 --> 10
,
44 --> 19
)
letting vehicleCapacity be 100
